NAME : netgen18-5-3
COMMENT : Generated using the function generateClusteredNetwork from the R-package netgen (Bossek,2015) - Number of clusters: 5
TYPE : TSP
DIMENSION : 18
EDGE_WEIGHT_TYPE : EUC_2D
NODE_COORD_SECTION
1 41.9164751195 75.8135528526
2 37.8611005677 73.5976220804
3 47.065791773 79.2107642514
4 39.0746322492 71.0694071033
5 47.3503045016 73.7027944581
6 56.5359443385 85.7975171543
7 17.4499231578 47.8032449285
8 12.6797697663 43.8766659766
9 18.8891848361 51.8039658047
10 79.5494638082 17.8897045029
11 91.8975805696 15.6009405087
12 80.9175466425 17.768550892
13 77.3776688709 18.2504462659
14 79.6941845128 27.5315562142
15 81.3528907678 25.1533631772
16 17.3766704881 83.6716982637
17 9.131125619 90.1091811502
18 14.6723031863 90.6260754651
EOF
